# Solution for model r10_t18_m3_3
# Finished Task: 18 / 18
# Makespan: 468.0, Total Distance: 893.0, Total Time: 0.0651
# R O S F
0 0 13 0.0 0.0
1 1 15 0.0 0.0
2 2 18 0.0 0.0
3 3 19 0.0 0.0
4 4 23 0.0 0.0
5 5 16 0.0 0.0
6 6 11 0.0 0.0
7 7 25 0.0 0.0
8 8 26 0.0 0.0
9 9 -1 0.0 0.0
10 7 -1 380.0 410.0
11 6 27 73.0 97.0
12 4 -1 361.0 398.0
13 0 14 137.0 176.0
14 0 -1 347.0 380.0
15 1 24 331.0 361.0
16 5 21 316.0 352.0
17 6 -1 361.0 400.0
18 2 -1 365.0 398.0
19 3 22 77.0 108.0
20 8 -1 165.0 193.0
21 5 -1 398.0 427.0
22 3 -1 395.0 429.0
23 4 12 282.0 312.0
24 1 -1 429.0 468.0
25 7 10 106.0 144.0
26 8 20 44.0 67.0
27 6 17 128.0 159.0
